p cnf 1498
-21 -469
-22 -472
-23 -475
-24 -478
-25 -481
-26 -484
-27 -487
-28 -490
-29 -493
-30 -496
-31 -499
-32 -502
-33 -505
-34 -508
-35 -511
-36 -514
-37 -517
-38 -520
-39 -523
-40 -526
-41 527
-42 528
-43 529
-44 530
-45 531
-46 532
-47 533
-48 534
-49 535
-50 536
-51 537
-52 538
-53 539
-54 -22
-54 -23
22 23 54
-55 -24
-55 -25
24 25 55
-56 -26
-56 -27
26 27 56
-57 -28
-57 -29
28 29 57
-58 -30
-58 -31
30 31 58
-59 -32
-59 -33
32 33 59
-60 -34
-60 -35
34 35 60
-61 -36
-61 -37
36 37 61
-62 -38
-62 -39
38 39 62
-63 -40
-63 -41
40 41 63
-64 -42
-64 -43
42 43 64
-65 -44
-65 -45
44 45 65
-66 -46
-66 -47
46 47 66
-67 -48
-67 -49
48 49 67
-68 -50
-68 -51
50 51 68
-69 -52
-69 -53
52 53 69
-70 54
-70 55
-54 -55 70
-71 56
-71 57
-56 -57 71
-72 58
-72 59
-58 -59 72
-73 60
-73 61
-60 -61 73
-74 62
-74 63
-62 -63 74
-75 64
-75 65
-64 -65 75
-76 66
-76 67
-66 -67 76
-77 68
-77 69
-68 -69 77
-78 70
-78 71
-70 -71 78
-79 72
-79 73
-72 -73 79
-80 74
-80 75
-74 -75 80
-81 76
-81 77
-76 -77 81
-82 78
-82 79
-78 -79 82
-83 80
-83 81
-80 -81 83
-84 82
-84 83
-82 -83 84
-85 -21
-85 22
21 -22 85
-86 21
-86 -22
-21 22 86
-87 -85
-87 -86
85 86 87
-88 21
-88 22
-21 -22 88
-89 -21
-89 -87
21 87 89
-90 21
-90 87
-21 -87 90
-91 -89
-91 -90
89 90 91
-92 21
-92 -87
-21 87 92
-93 -88
-93 -92
88 92 93
-94 -22
-94 23
22 -23 94
-95 22
-95 -23
-22 23 95
-96 -94
-96 -95
94 95 96
-97 22
-97 23
-22 -23 97
-98 93
-98 -96
-93 96 98
-99 -93
-99 96
93 -96 99
-100 -98
-100 -99
98 99 100
-101 -93
-101 -96
93 96 101
-102 -97
-102 -101
97 101 102
-103 -23
-103 24
23 -24 103
-104 23
-104 -24
-23 24 104
-105 -103
-105 -104
103 104 105
-106 23
-106 24
-23 -24 106
-107 102
-107 -105
-102 105 107
-108 -102
-108 105
102 -105 108
-109 -107
-109 -108
107 108 109
-110 -102
-110 -105
102 105 110
-111 -106
-111 -110
106 110 111
-112 -24
-112 25
24 -25 112
-113 24
-113 -25
-24 25 113
-114 -112
-114 -113
112 113 114
-115 24
-115 25
-24 -25 115
-116 111
-116 -114
-111 114 116
-117 -111
-117 114
111 -114 117
-118 -116
-118 -117
116 117 118
-119 -111
-119 -114
111 114 119
-120 -115
-120 -119
115 119 120
-121 -25
-121 26
25 -26 121
-122 25
-122 -26
-25 26 122
-123 -121
-123 -122
121 122 123
-124 25
-124 26
-25 -26 124
-125 120
-125 -123
-120 123 125
-126 -120
-126 123
120 -123 126
-127 -125
-127 -126
125 126 127
-128 -120
-128 -123
120 123 128
-129 -124
-129 -128
124 128 129
-130 -26
-130 27
26 -27 130
-131 26
-131 -27
-26 27 131
-132 -130
-132 -131
130 131 132
-133 26
-133 27
-26 -27 133
-134 129
-134 -132
-129 132 134
-135 -129
-135 132
129 -132 135
-136 -134
-136 -135
134 135 136
-137 -129
-137 -132
129 132 137
-138 -133
-138 -137
133 137 138
-139 -27
-139 28
27 -28 139
-140 27
-140 -28
-27 28 140
-141 -139
-141 -140
139 140 141
-142 27
-142 28
-27 -28 142
-143 138
-143 -141
-138 141 143
-144 -138
-144 141
138 -141 144
-145 -143
-145 -144
143 144 145
-146 -138
-146 -141
138 141 146
-147 -142
-147 -146
142 146 147
-148 -28
-148 29
28 -29 148
-149 28
-149 -29
-28 29 149
-150 -148
-150 -149
148 149 150
-151 28
-151 29
-28 -29 151
-152 147
-152 -150
-147 150 152
-153 -147
-153 150
147 -150 153
-154 -152
-154 -153
152 153 154
-155 -147
-155 -150
147 150 155
-156 -151
-156 -155
151 155 156
-157 -29
-157 30
29 -30 157
-158 29
-158 -30
-29 30 158
-159 -157
-159 -158
157 158 159
-160 29
-160 30
-29 -30 160
-161 156
-161 -159
-156 159 161
-162 -156
-162 159
156 -159 162
-163 -161
-163 -162
161 162 163
-164 -156
-164 -159
156 159 164
-165 -160
-165 -164
160 164 165
-166 -30
-166 31
30 -31 166
-167 30
-167 -31
-30 31 167
-168 -166
-168 -167
166 167 168
-169 30
-169 31
-30 -31 169
-170 165
-170 -168
-165 168 170
-171 -165
-171 168
165 -168 171
-172 -170
-172 -171
170 171 172
-173 -165
-173 -168
165 168 173
-174 -169
-174 -173
169 173 174
-175 -31
-175 32
31 -32 175
-176 31
-176 -32
-31 32 176
-177 -175
-177 -176
175 176 177
-178 31
-178 32
-31 -32 178
-179 174
-179 -177
-174 177 179
-180 -174
-180 177
174 -177 180
-181 -179
-181 -180
179 180 181
-182 -174
-182 -177
174 177 182
-183 -178
-183 -182
178 182 183
-184 -32
-184 33
32 -33 184
-185 32
-185 -33
-32 33 185
-186 -184
-186 -185
184 185 186
-187 32
-187 33
-32 -33 187
-188 183
-188 -186
-183 186 188
-189 -183
-189 186
183 -186 189
-190 -188
-190 -189
188 189 190
-191 -183
-191 -186
183 186 191
-192 -187
-192 -191
187 191 192
-193 -33
-193 34
33 -34 193
-194 33
-194 -34
-33 34 194
-195 -193
-195 -194
193 194 195
-196 33
-196 34
-33 -34 196
-197 192
-197 -195
-192 195 197
-198 -192
-198 195
192 -195 198
-199 -197
-199 -198
197 198 199
-200 -192
-200 -195
192 195 200
-201 -196
-201 -200
196 200 201
-202 -34
-202 35
34 -35 202
-203 34
-203 -35
-34 35 203
-204 -202
-204 -203
202 203 204
-205 34
-205 35
-34 -35 205
-206 201
-206 -204
-201 204 206
-207 -201
-207 204
201 -204 207
-208 -206
-208 -207
206 207 208
-209 -201
-209 -204
201 204 209
-210 -205
-210 -209
205 209 210
-211 -35
-211 36
35 -36 211
-212 35
-212 -36
-35 36 212
-213 -211
-213 -212
211 212 213
-214 35
-214 36
-35 -36 214
-215 210
-215 -213
-210 213 215
-216 -210
-216 213
210 -213 216
-217 -215
-217 -216
215 216 217
-218 -210
-218 -213
210 213 218
-219 -214
-219 -218
214 218 219
-220 -36
-220 37
36 -37 220
-221 36
-221 -37
-36 37 221
-222 -220
-222 -221
220 221 222
-223 36
-223 37
-36 -37 223
-224 219
-224 -222
-219 222 224
-225 -219
-225 222
219 -222 225
-226 -224
-226 -225
224 225 226
-227 -219
-227 -222
219 222 227
-228 -223
-228 -227
223 227 228
-229 -37
-229 38
37 -38 229
-230 37
-230 -38
-37 38 230
-231 -229
-231 -230
229 230 231
-232 37
-232 38
-37 -38 232
-233 228
-233 -231
-228 231 233
-234 -228
-234 231
228 -231 234
-235 -233
-235 -234
233 234 235
-236 -228
-236 -231
228 231 236
-237 -232
-237 -236
232 236 237
-238 -38
-238 39
38 -39 238
-239 38
-239 -39
-38 39 239
-240 -238
-240 -239
238 239 240
-241 38
-241 39
-38 -39 241
-242 237
-242 -240
-237 240 242
-243 -237
-243 240
237 -240 243
-244 -242
-244 -243
242 243 244
-245 -237
-245 -240
237 240 245
-246 -241
-246 -245
241 245 246
-247 -39
-247 40
39 -40 247
-248 39
-248 -40
-39 40 248
-249 -247
-249 -248
247 248 249
-250 39
-250 40
-39 -40 250
-251 246
-251 -249
-246 249 251
-252 -246
-252 249
246 -249 252
-253 -251
-253 -252
251 252 253
-254 -246
-254 -249
246 249 254
-255 -250
-255 -254
250 254 255
-256 -40
-256 41
40 -41 256
-257 40
-257 -41
-40 41 257
-258 -256
-258 -257
256 257 258
-259 40
-259 41
-40 -41 259
-260 255
-260 -258
-255 258 260
-261 -255
-261 258
255 -258 261
-262 -260
-262 -261
260 261 262
-263 -255
-263 -258
255 258 263
-264 -259
-264 -263
259 263 264
-265 -41
-265 42
41 -42 265
-266 41
-266 -42
-41 42 266
-267 -265
-267 -266
265 266 267
-268 41
-268 42
-41 -42 268
-269 264
-269 -267
-264 267 269
-270 -264
-270 267
264 -267 270
-271 -269
-271 -270
269 270 271
-272 -264
-272 -267
264 267 272
-273 -268
-273 -272
268 272 273
-274 -42
-274 43
42 -43 274
-275 42
-275 -43
-42 43 275
-276 -274
-276 -275
274 275 276
-277 42
-277 43
-42 -43 277
-278 273
-278 -276
-273 276 278
-279 -273
-279 276
273 -276 279
-280 -278
-280 -279
278 279 280
-281 -273
-281 -276
273 276 281
-282 -277
-282 -281
277 281 282
-283 -43
-283 44
43 -44 283
-284 43
-284 -44
-43 44 284
-285 -283
-285 -284
283 284 285
-286 43
-286 44
-43 -44 286
-287 282
-287 -285
-282 285 287
-288 -282
-288 285
282 -285 288
-289 -287
-289 -288
287 288 289
-290 -282
-290 -285
282 285 290
-291 -286
-291 -290
286 290 291
-292 -44
-292 45
44 -45 292
-293 44
-293 -45
-44 45 293
-294 -292
-294 -293
292 293 294
-295 44
-295 45
-44 -45 295
-296 291
-296 -294
-291 294 296
-297 -291
-297 294
291 -294 297
-298 -296
-298 -297
296 297 298
-299 -291
-299 -294
291 294 299
-300 -295
-300 -299
295 299 300
-301 -45
-301 46
45 -46 301
-302 45
-302 -46
-45 46 302
-303 -301
-303 -302
301 302 303
-304 45
-304 46
-45 -46 304
-305 300
-305 -303
-300 303 305
-306 -300
-306 303
300 -303 306
-307 -305
-307 -306
305 306 307
-308 -300
-308 -303
300 303 308
-309 -304
-309 -308
304 308 309
-310 -46
-310 47
46 -47 310
-311 46
-311 -47
-46 47 311
-312 -310
-312 -311
310 311 312
-313 46
-313 47
-46 -47 313
-314 309
-314 -312
-309 312 314
-315 -309
-315 312
309 -312 315
-316 -314
-316 -315
314 315 316
-317 -309
-317 -312
309 312 317
-318 -313
-318 -317
313 317 318
-319 -47
-319 48
47 -48 319
-320 47
-320 -48
-47 48 320
-321 -319
-321 -320
319 320 321
-322 47
-322 48
-47 -48 322
-323 318
-323 -321
-318 321 323
-324 -318
-324 321
318 -321 324
-325 -323
-325 -324
323 324 325
-326 -318
-326 -321
318 321 326
-327 -322
-327 -326
322 326 327
-328 -48
-328 49
48 -49 328
-329 48
-329 -49
-48 49 329
-330 -328
-330 -329
328 329 330
-331 48
-331 49
-48 -49 331
-332 327
-332 -330
-327 330 332
-333 -327
-333 330
327 -330 333
-334 -332
-334 -333
332 333 334
-335 -327
-335 -330
327 330 335
-336 -331
-336 -335
331 335 336
-337 -49
-337 50
49 -50 337
-338 49
-338 -50
-49 50 338
-339 -337
-339 -338
337 338 339
-340 49
-340 50
-49 -50 340
-341 336
-341 -339
-336 339 341
-342 -336
-342 339
336 -339 342
-343 -341
-343 -342
341 342 343
-344 -336
-344 -339
336 339 344
-345 -340
-345 -344
340 344 345
-346 -50
-346 51
50 -51 346
-347 50
-347 -51
-50 51 347
-348 -346
-348 -347
346 347 348
-349 50
-349 51
-50 -51 349
-350 345
-350 -348
-345 348 350
-351 -345
-351 348
345 -348 351
-352 -350
-352 -351
350 351 352
-353 -345
-353 -348
345 348 353
-354 -349
-354 -353
349 353 354
-355 -51
-355 52
51 -52 355
-356 51
-356 -52
-51 52 356
-357 -355
-357 -356
355 356 357
-358 51
-358 52
-51 -52 358
-359 354
-359 -357
-354 357 359
-360 -354
-360 357
354 -357 360
-361 -359
-361 -360
359 360 361
-362 -354
-362 -357
354 357 362
-363 -358
-363 -362
358 362 363
-364 -52
-364 53
52 -53 364
-365 52
-365 -53
-52 53 365
-366 -364
-366 -365
364 365 366
-367 52
-367 53
-52 -53 367
-368 363
-368 -366
-363 366 368
-369 -363
-369 366
363 -366 369
-370 -368
-370 -369
368 369 370
-371 -363
-371 -366
363 366 371
-372 -367
-372 -371
367 371 372
-373 21
-373 -91
-21 91 373
-374 -21
-374 23
21 -23 374
-375 -373
-375 -374
373 374 375
-376 21
-376 -100
-21 100 376
-377 -21
-377 24
21 -24 377
-378 -376
-378 -377
376 377 378
-379 21
-379 -109
-21 109 379
-380 -21
-380 25
21 -25 380
-381 -379
-381 -380
379 380 381
-382 21
-382 -118
-21 118 382
-383 -21
-383 26
21 -26 383
-384 -382
-384 -383
382 383 384
-385 21
-385 -127
-21 127 385
-386 -21
-386 27
21 -27 386
-387 -385
-387 -386
385 386 387
-388 21
-388 -136
-21 136 388
-389 -21
-389 28
21 -28 389
-390 -388
-390 -389
388 389 390
-391 21
-391 -145
-21 145 391
-392 -21
-392 29
21 -29 392
-393 -391
-393 -392
391 392 393
-394 21
-394 -154
-21 154 394
-395 -21
-395 30
21 -30 395
-396 -394
-396 -395
394 395 396
-397 21
-397 -163
-21 163 397
-398 -21
-398 31
21 -31 398
-399 -397
-399 -398
397 398 399
-400 21
-400 -172
-21 172 400
-401 -21
-401 32
21 -32 401
-402 -400
-402 -401
400 401 402
-403 21
-403 -181
-21 181 403
-404 -21
-404 33
21 -33 404
-405 -403
-405 -404
403 404 405
-406 21
-406 -190
-21 190 406
-407 -21
-407 34
21 -34 407
-408 -406
-408 -407
406 407 408
-409 21
-409 -199
-21 199 409
-410 -21
-410 35
21 -35 410
-411 -409
-411 -410
409 410 411
-412 21
-412 -208
-21 208 412
-413 -21
-413 36
21 -36 413
-414 -412
-414 -413
412 413 414
-415 21
-415 -217
-21 217 415
-416 -21
-416 37
21 -37 416
-417 -415
-417 -416
415 416 417
-418 21
-418 -226
-21 226 418
-419 -21
-419 38
21 -38 419
-420 -418
-420 -419
418 419 420
-421 21
-421 -235
-21 235 421
-422 -21
-422 39
21 -39 422
-423 -421
-423 -422
421 422 423
-424 21
-424 -244
-21 244 424
-425 -21
-425 40
21 -40 425
-426 -424
-426 -425
424 425 426
-427 21
-427 -253
-21 253 427
-428 -21
-428 41
21 -41 428
-429 -427
-429 -428
427 428 429
-430 21
-430 -262
-21 262 430
-431 -21
-431 42
21 -42 431
-432 -430
-432 -431
430 431 432
-433 21
-433 -271
-21 271 433
-434 -21
-434 43
21 -43 434
-435 -433
-435 -434
433 434 435
-436 21
-436 -280
-21 280 436
-437 -21
-437 44
21 -44 437
-438 -436
-438 -437
436 437 438
-439 21
-439 -289
-21 289 439
-440 -21
-440 45
21 -45 440
-441 -439
-441 -440
439 440 441
-442 21
-442 -298
-21 298 442
-443 -21
-443 46
21 -46 443
-444 -442
-444 -443
442 443 444
-445 21
-445 -307
-21 307 445
-446 -21
-446 47
21 -47 446
-447 -445
-447 -446
445 446 447
-448 21
-448 -316
-21 316 448
-449 -21
-449 48
21 -48 449
-450 -448
-450 -449
448 449 450
-451 21
-451 -325
-21 325 451
-452 -21
-452 49
21 -49 452
-453 -451
-453 -452
451 452 453
-454 21
-454 -334
-21 334 454
-455 -21
-455 50
21 -50 455
-456 -454
-456 -455
454 455 456
-457 21
-457 -343
-21 343 457
-458 -21
-458 51
21 -51 458
-459 -457
-459 -458
457 458 459
-460 21
-460 -352
-21 352 460
-461 -21
-461 52
21 -52 461
-462 -460
-462 -461
460 461 462
-463 21
-463 -361
-21 361 463
-464 -21
-464 53
21 -53 464
-465 -463
-465 -464
463 464 465
-466 21
-466 -370
-21 370 466
-467 1
-467 84
-1 -84 467
-468 -84
-468 85
84 -85 468
-469 -467
-469 -468
467 468 469
-470 2
-470 84
-2 -84 470
-471 -84
-471 -375
84 375 471
-472 -470
-472 -471
470 471 472
-473 3
-473 84
-3 -84 473
-474 -84
-474 -378
84 378 474
-475 -473
-475 -474
473 474 475
-476 4
-476 84
-4 -84 476
-477 -84
-477 -381
84 381 477
-478 -476
-478 -477
476 477 478
-479 5
-479 84
-5 -84 479
-480 -84
-480 -384
84 384 480
-481 -479
-481 -480
479 480 481
-482 6
-482 84
-6 -84 482
-483 -84
-483 -387
84 387 483
-484 -482
-484 -483
482 483 484
-485 7
-485 84
-7 -84 485
-486 -84
-486 -390
84 390 486
-487 -485
-487 -486
485 486 487
-488 8
-488 84
-8 -84 488
-489 -84
-489 -393
84 393 489
-490 -488
-490 -489
488 489 490
-491 9
-491 84
-9 -84 491
-492 -84
-492 -396
84 396 492
-493 -491
-493 -492
491 492 493
-494 10
-494 84
-10 -84 494
-495 -84
-495 -399
84 399 495
-496 -494
-496 -495
494 495 496
-497 11
-497 84
-11 -84 497
-498 -84
-498 -402
84 402 498
-499 -497
-499 -498
497 498 499
-500 12
-500 84
-12 -84 500
-501 -84
-501 -405
84 405 501
-502 -500
-502 -501
500 501 502
-503 13
-503 84
-13 -84 503
-504 -84
-504 -408
84 408 504
-505 -503
-505 -504
503 504 505
-506 14
-506 84
-14 -84 506
-507 -84
-507 -411
84 411 507
-508 -506
-508 -507
506 507 508
-509 15
-509 84
-15 -84 509
-510 -84
-510 -414
84 414 510
-511 -509
-511 -510
509 510 511
-512 16
-512 84
-16 -84 512
-513 -84
-513 -417
84 417 513
-514 -512
-514 -513
512 513 514
-515 17
-515 84
-17 -84 515
-516 -84
-516 -420
84 420 516
-517 -515
-517 -516
515 516 517
-518 18
-518 84
-18 -84 518
-519 -84
-519 -423
84 423 519
-520 -518
-520 -519
518 519 520
-521 19
-521 84
-19 -84 521
-522 -84
-522 -426
84 426 522
-523 -521
-523 -522
521 522 523
-524 20
-524 84
-20 -84 524
-525 -84
-525 -429
84 429 525
-526 -524
-526 -525
524 525 526
-527 -84
-527 -432
84 432 527
-528 -84
-528 -435
84 435 528
-529 -84
-529 -438
84 438 529
-530 -84
-530 -441
84 441 530
-531 -84
-531 -444
84 444 531
-532 -84
-532 -447
84 447 532
-533 -84
-533 -450
84 450 533
-534 -84
-534 -453
84 453 534
-535 -84
-535 -456
84 456 535
-536 -84
-536 -459
84 459 536
-537 -84
-537 -462
84 462 537
-538 -84
-538 -465
84 465 538
-539 -84
-539 466
84 -466 539
-540 -53
-540 372
53 -372 540
-541 21
-541 -540
-21 540 541
541
